CPXPARAM_Read_DataCheck                          1
Found incumbent of value 0.000000 after 0.00 sec. (0.02 ticks)
Tried aggregator 1 time.
MIP Presolve modified 1 coefficients.
Reduced MIP has 117 rows, 505 columns, and 2517 nonzeros.
Reduced MIP has 505 binaries, 0 generals, 0 SOSs, and 0 indicators.
Presolve time = 0.00 sec. (1.07 ticks)
Probing time = 0.00 sec. (2.22 ticks)
Tried aggregator 1 time.
Reduced MIP has 117 rows, 505 columns, and 2517 nonzeros.
Reduced MIP has 505 binaries, 0 generals, 0 SOSs, and 0 indicators.
Presolve time = 0.00 sec. (1.27 ticks)
Probing time = 0.00 sec. (2.15 ticks)
Clique table members: 1814.
MIP emphasis: balance optimality and feasibility.
MIP search method: dynamic search.
Parallel mode: deterministic, using up to 4 threads.
Root relaxation solution time = 0.00 sec. (1.00 ticks)

        Nodes                                         Cuts/
   Node  Left     Objective  IInf  Best Integer    Best Bound    ItCnt     Gap

*     0+    0                            0.0000     3108.0000              --- 
*     0+    0                          333.0000     3108.0000           833.33%
      0     0     1629.0100     5      333.0000     1629.0100      150  389.19%
      0     0     1592.8108    14      333.0000     Cuts: 136      168  378.32%
      0     0     1517.0994    46      333.0000     Cuts: 133      222  355.59%
      0     0     1412.5394   139      333.0000     Cuts: 129      383  324.19%
*     0+    0                          732.0000     1412.5394            92.97%
      0     0     1109.2823   292      732.0000     Cuts: 135      630   51.54%
      0     0     1029.9376   236      732.0000      Cuts: 94      760   40.70%
      0     0     1000.7375   243      732.0000     Cuts: 129      894   36.71%
*     0+    0                          976.0000     1000.7375             2.53%
      0     0      996.4128   165      976.0000      Cuts: 65      946    2.09%
      0     0      989.7906   198      976.0000      Cuts: 15     1044    1.41%
*     0+    0                          983.0000      989.7906             0.69%
      0     0        cutoff            983.0000      983.0000     1086    0.00%
Elapsed time = 0.13 sec. (102.78 ticks, tree = 0.01 MB, solutions = 5)

GUB cover cuts applied:  1
Clique cuts applied:  343
Cover cuts applied:  21
Implied bound cuts applied:  5
Flow cuts applied:  5
Mixed integer rounding cuts applied:  9
Zero-half cuts applied:  1

Root node processing (before b&c):
  Real time             =    0.13 sec. (102.83 ticks)
Parallel b&c, 4 threads:
  Real time             =    0.00 sec. (0.00 ticks)
  Sync time (average)   =    0.00 sec.
  Wait time (average)   =    0.00 sec.
                          ------------
Total (root+branch&cut) =    0.13 sec. (102.83 ticks)
